nNurses = 197;
nHours = 38;
minHours = 3;
maxHours = 20;
maxConsec = 12;
maxPresence = 34;
demand = [17, 16, 12, 13, 12, 15, 17, 19, 15, 20, 19, 24, 25, 22, 24, 22, 22, 26, 21, 24, 25, 23, 26, 26, 28, 33, 29, 30, 31, 36, 37, 40, 38, 33, 34, 29, 26, 27];
